NAME : in_house_7_2
TYPE : TSP
DIMENSION : 7
EDGE_WEIGHT_TYPE : EXPLICIT
EDGE_WEIGHT_FORMAT : UPPER_ROW
COMMENT : INVERSION_SHIFT=4
EDGE_WEIGHT_SECTION
35
11
44
8
29
1
46
42
33
8
30
26
18
18
1
30
8
25
31
16
21
